minizinc/sudoku_problems2/sudoku_p31.dzn
%
% sudoku_p31.dzn
% See http://www.hakank.org/minizinc/sudoku_gcc.mzn
% 
% This problem is problem 31 from
% Gecode's sudoku.cpp
% http://www.gecode.org/gecode-doc-latest/sudoku_8cpp-source.html
% 
x = array2d(1..n, 1..n, [   
% 31
  _,  _,  _, 17,  _,  _,  _,  _, 16, 20, 22,  _,  4,  3,  _,  _, 11,  _, 13,  _,  _,  _,  _,  _,  _,
  1,  5, 18,  _, 12,  _,  _,  _,  _,  8, 11,  _,  6, 13,  _,  7, 16,  _,  _,  _,  _, 10,  _, 17,  4,
  _,  7,  _,  _,  _, 15,  _,  _, 11,  _,  _,  _, 19,  _, 14,  1,  6,  _, 23,  _,  _,  _,  _,  3,  _,
  _,  _,  _, 13,  _,  1,  _,  _,  _,  6, 21,  7,  _, 17,  _,  5, 20,  _,  _,  _,  _, 25,  9,  8, 15,
 20, 19,  _, 10, 15,  _,  5, 12, 17, 24,  _,  _,  _, 23, 25,  2, 22,  _,  _,  _,  _,  _, 11,  _,  _,
  4,  _,  _, 20,  _,  _, 18,  9,  _, 22,  _, 13, 23, 25,  _,  _, 10,  _,  3,  _,  _, 14,  5, 24,  6,
 25, 16, 12,  _,  _,  _, 17, 14,  _,  _,  _,  _,  _, 18,  5,  _,  _, 22,  _,  _,  _,  7,  _,  _, 19,
  _, 11,  _, 14, 19,  _,  _, 16,  _,  5,  _,  _, 21,  _,  _,  _,  _, 13,  _,  4,  8,  _,  2,  _,  _,
  _, 13,  _,  _,  _,  _, 23,  _,  4,  _, 19,  _,  2, 10,  _,  _, 17,  _,  _,  5,  _,  _, 15,  1,  _,
  8,  _,  _,  _,  _, 10, 19, 21, 13,  _,  7,  _,  _, 24, 22,  _,  _,  _,  1, 11,  _,  _,  _,  _, 25,
 12, 17,  _,  _,  _, 23,  _,  _,  7,  _,  _,  _,  _,  _,  _,  _,  _,  _, 11,  3,  _,  _,  _,  _,  _,
 18,  _,  _, 24,  _, 19, 21,  _,  _, 25,  5,  _,  _,  _,  3,  _,  _,  _,  _,  _,  _, 20, 17,  _,  8,
 13,  _,  2,  5,  9,  _, 14,  _,  _,  _,  _,  _,  _,  6,  _,  _,  _,  _,  _,  _,  _, 21,  3,  _,  _,
  _,  _,  _,  3, 20,  6,  _, 11,  _, 10, 14,  _,  _,  7,  4, 23,  2,  5, 17,  _,  _, 16,  1,  _,  _,
  _, 21,  _, 11,  _,  _,  4,  1,  _, 17, 12,  _,  _,  _, 16,  _, 24, 18, 25,  8,  _,  _, 22, 23,  7,
  _,  _,  _,  _,  _,  _,  _,  _,  _,  2,  _, 12,  _,  4,  _, 21,  _,  _,  _,  _,  6,  9,  _, 18,  5,
 23,  _,  _,  _,  7,  _, 12,  _,  _,  _,  6,  9,  _,  5,  _, 10,  _,  _,  _,  _,  _,  _, 25, 20, 21,
  _,  _,  _,  _, 21,  _, 16,  _,  _,  _,  1,  3,  _, 11, 24, 22, 25,  _,  8,  2,  _,  _, 13,  7, 17,
  _,  _,  _, 12,  _, 17,  _,  _,  5,  _, 25,  _, 14,  _, 20,  _,  _,  _, 18,  7,  _,  _,  _,  _,  _,
 19, 24,  _,  _, 25,  _,  9,  6, 10, 11, 18,  8,  _,  _,  _,  _,  _, 12,  _,  _, 23,  _,  _,  4, 16,
  _, 23, 10,  8, 17,  _,  3,  2,  _,  _, 24,  4,  _,  _, 18, 11,  _,  _, 21,  9, 16,  _,  _, 19,  _,
  _,  _,  4,  _, 16, 13,  _,  _, 22,  _,  3,  _,  _,  2,  7, 18, 23, 19,  _, 24,  _,  _,  _,  _,  _,
  _, 12,  9, 21,  _,  _, 10,  _,  _, 19,  _,  _,  _,  _,  _,  6,  _,  2,  _,  _, 18,  _,  _, 15,  _,
 11, 20,  _,  _,  _,  4,  _,  _, 15,  _, 10,  _, 12, 21,  _,  _,  8,  7,  _,  1,  _, 24,  _, 22,  _,
  6,  _,  _, 25,  _, 18,  _,  5,  _,  _,  _, 22,  _,  _, 23,  _,  _,  _,  _, 15,  _,  _,  _,  _, 13
]);

n = 25;


